c A SAT instance generated from a 3-CNF formula that had 30 clauses and 10 variables
p cnf 10 30
4 -3 -7 0
8 -5 4 0
-9 -5 4 0
-4 -6 7 0
10 1 7 0
-5 7 -10 0
-8 1 2 0
6 9 3 0
10 -7 6 0
-7 -2 4 0
8 1 -9 0
-10 1 -4 0
-2 -1 4 0
-9 -7 -4 0
-10 4 -2 0
7 1 4 0
-3 2 5 0
4 -1 -3 0
8 6 -2 0
1 2 -6 0
2 5 -10 0
4 -7 10 0
10 7 1 0
-10 5 3 0
-6 9 -4 0
2 -6 3 0
3 6 4 0
-4 -5 7 0
-5 6 3 0
5 -4 10 0
